
ASes= { 1, 2, 3, 4, 5, 6, 7, 8, 9, 10, 11 } ;


Objects= { 1, 2, 3, 4, 5, 6, 7, 8, 9, 10, 11, 12, 13, 14, 15, 16, 17, 18, 19, 20, 21, 22, 23, 24, 25, 26, 27, 28, 29, 30, 31, 32, 33, 34, 35, 36, 37, 38, 39, 40, 41, 42, 43, 44, 45, 46, 47, 48, 49, 50, 51, 52, 53, 54, 55, 56, 57, 58, 59, 60, 61, 62, 63, 64, 65, 66, 67, 68, 69, 70, 71, 72, 73, 74, 75, 76, 77, 78, 79, 80, 81, 82, 83, 84, 85, 86, 87, 88, 89, 90, 91, 92, 93, 94, 95, 96, 97, 98, 99, 100 } ;


QualityLevels= { 0, 1, 2, 3, 4, 5 } ;

Arcs = {<2,1,490000>, <1,2,490000>, <11,1,490000>, <1,11,490000>, <11,2,490000>, <2,11,490000>, <11,10,490000>, <10,11,490000>, <3,2,490000>, <2,3,490000>, <4,3,490000>, <3,4,490000>, <5,4,490000>, <4,5,490000>, <6,5,490000>, <5,6,490000>, <7,6,490000>, <6,7,490000>, <8,4,490000>, <4,8,490000>, <8,7,490000>, <7,8,490000>, <9,3,490000>, <3,9,490000>, <9,8,490000>, <8,9,490000>, <10,9,490000>, <9,10,490000>};


RatePerQuality= [ 0  300  700  1500  2500  3500 ] ;


CacheSpacePerQuality= [ 10000  11.25  26.25  56.25  93.75  131.25 ] ;


UtilityPerQuality= [ 0  0.2  0.4  0.6  0.8  1 ] ;


ObjectsPublishedByProducers=[ [ 0  0  0  0  0  0  0  1  0  0  0 ]  [ 0  0  0  0  0  0  0  1  0  0  0 ]  [ 0  0  0  0  0  0  0  1  0  0  0 ]  [ 0  0  0  0  0  0  0  1  0  0  0 ]  [ 0  0  0  0  0  0  0  1  0  0  0 ]  [ 0  0  0  0  0  0  0  1  0  0  0 ]  [ 0  0  0  0  0  0  0  1  0  0  0 ]  [ 0  0  0  0  0  0  0  1  0  0  0 ]  [ 0  0  0  0  0  0  0  1  0  0  0 ]  [ 0  0  0  0  0  0  0  1  0  0  0 ]  [ 0  0  0  0  0  0  0  1  0  0  0 ]  [ 0  0  0  0  0  0  0  1  0  0  0 ]  [ 0  0  0  0  0  0  0  1  0  0  0 ]  [ 0  0  0  0  0  0  0  1  0  0  0 ]  [ 0  0  0  0  0  0  0  1  0  0  0 ]  [ 0  0  0  0  0  0  0  1  0  0  0 ]  [ 0  0  0  0  0  0  0  1  0  0  0 ]  [ 0  0  0  0  0  0  0  1  0  0  0 ]  [ 0  0  0  0  0  0  0  1  0  0  0 ]  [ 0  0  0  0  0  0  0  1  0  0  0 ]  [ 0  0  0  0  0  0  0  1  0  0  0 ]  [ 0  0  0  0  0  0  0  1  0  0  0 ]  [ 0  0  0  0  0  0  0  1  0  0  0 ]  [ 0  0  0  0  0  0  0  1  0  0  0 ]  [ 0  0  0  0  0  0  0  1  0  0  0 ]  [ 0  0  0  0  0  0  0  1  0  0  0 ]  [ 0  0  0  0  0  0  0  1  0  0  0 ]  [ 0  0  0  0  0  0  0  1  0  0  0 ]  [ 0  0  0  0  0  0  0  1  0  0  0 ]  [ 0  0  0  0  0  0  0  1  0  0  0 ]  [ 0  0  0  0  0  0  0  1  0  0  0 ]  [ 0  0  0  0  0  0  0  1  0  0  0 ]  [ 0  0  0  0  0  0  0  1  0  0  0 ]  [ 0  0  0  0  0  0  0  1  0  0  0 ]  [ 0  0  0  0  0  0  0  1  0  0  0 ]  [ 0  0  0  0  0  0  0  1  0  0  0 ]  [ 0  0  0  0  0  0  0  1  0  0  0 ]  [ 0  0  0  0  0  0  0  1  0  0  0 ]  [ 0  0  0  0  0  0  0  1  0  0  0 ]  [ 0  0  0  0  0  0  0  1  0  0  0 ]  [ 0  0  0  0  0  0  0  1  0  0  0 ]  [ 0  0  0  0  0  0  0  1  0  0  0 ]  [ 0  0  0  0  0  0  0  1  0  0  0 ]  [ 0  0  0  0  0  0  0  1  0  0  0 ]  [ 0  0  0  0  0  0  0  1  0  0  0 ]  [ 0  0  0  0  0  0  0  1  0  0  0 ]  [ 0  0  0  0  0  0  0  1  0  0  0 ]  [ 0  0  0  0  0  0  0  1  0  0  0 ]  [ 0  0  0  0  0  0  0  1  0  0  0 ]  [ 0  0  0  0  0  0  0  1  0  0  0 ]  [ 0  0  0  0  0  0  0  1  0  0  0 ]  [ 0  0  0  0  0  0  0  1  0  0  0 ]  [ 0  0  0  0  0  0  0  1  0  0  0 ]  [ 0  0  0  0  0  0  0  1  0  0  0 ]  [ 0  0  0  0  0  0  0  1  0  0  0 ]  [ 0  0  0  0  0  0  0  1  0  0  0 ]  [ 0  0  0  0  0  0  0  1  0  0  0 ]  [ 0  0  0  0  0  0  0  1  0  0  0 ]  [ 0  0  0  0  0  0  0  1  0  0  0 ]  [ 0  0  0  0  0  0  0  1  0  0  0 ]  [ 0  0  0  0  0  0  0  1  0  0  0 ]  [ 0  0  0  0  0  0  0  1  0  0  0 ]  [ 0  0  0  0  0  0  0  1  0  0  0 ]  [ 0  0  0  0  0  0  0  1  0  0  0 ]  [ 0  0  0  0  0  0  0  1  0  0  0 ]  [ 0  0  0  0  0  0  0  1  0  0  0 ]  [ 0  0  0  0  0  0  0  1  0  0  0 ]  [ 0  0  0  0  0  0  0  1  0  0  0 ]  [ 0  0  0  0  0  0  0  1  0  0  0 ]  [ 0  0  0  0  0  0  0  1  0  0  0 ]  [ 0  0  0  0  0  0  0  1  0  0  0 ]  [ 0  0  0  0  0  0  0  1  0  0  0 ]  [ 0  0  0  0  0  0  0  1  0  0  0 ]  [ 0  0  0  0  0  0  0  1  0  0  0 ]  [ 0  0  0  0  0  0  0  1  0  0  0 ]  [ 0  0  0  0  0  0  0  1  0  0  0 ]  [ 0  0  0  0  0  0  0  1  0  0  0 ]  [ 0  0  0  0  0  0  0  1  0  0  0 ]  [ 0  0  0  0  0  0  0  1  0  0  0 ]  [ 0  0  0  0  0  0  0  1  0  0  0 ]  [ 0  0  0  0  0  0  0  1  0  0  0 ]  [ 0  0  0  0  0  0  0  1  0  0  0 ]  [ 0  0  0  0  0  0  0  1  0  0  0 ]  [ 0  0  0  0  0  0  0  1  0  0  0 ]  [ 0  0  0  0  0  0  0  1  0  0  0 ]  [ 0  0  0  0  0  0  0  1  0  0  0 ]  [ 0  0  0  0  0  0  0  1  0  0  0 ]  [ 0  0  0  0  0  0  0  1  0  0  0 ]  [ 0  0  0  0  0  0  0  1  0  0  0 ]  [ 0  0  0  0  0  0  0  1  0  0  0 ]  [ 0  0  0  0  0  0  0  1  0  0  0 ]  [ 0  0  0  0  0  0  0  1  0  0  0 ]  [ 0  0  0  0  0  0  0  1  0  0  0 ]  [ 0  0  0  0  0  0  0  1  0  0  0 ]  [ 0  0  0  0  0  0  0  1  0  0  0 ]  [ 0  0  0  0  0  0  0  1  0  0  0 ]  [ 0  0  0  0  0  0  0  1  0  0  0 ]  [ 0  0  0  0  0  0  0  1  0  0  0 ]  [ 0  0  0  0  0  0  0  1  0  0  0 ]  [ 0  0  0  0  0  0  0  1  0  0  0 ] ];

ObjRequests = {  <1,5,480>, <2,5,192>, <3,5,337>, <4,5,51>, <5,5,144>, <6,5,201>, <7,5,154>, <8,5,160>, <9,5,5>, <10,5,39>, <11,5,54>, <12,5,83>, <13,5,120>, <14,5,14>, <15,5,54>, <16,5,1>, <17,5,62>, <18,5,19>, <20,5,9>, <21,5,30>, <22,5,66>, <23,5,22>, <24,5,7>, <25,5,24>, <26,5,2>, <27,5,35>, <28,5,23>, <29,5,23>, <30,5,5>, <31,5,1>, <32,5,7>, <33,5,12>, <34,5,36>, <35,5,33>, <36,5,16>, <37,5,27>, <38,5,15>, <39,5,6>, <40,5,20>, <41,5,14>, <42,5,1>, <43,5,21>, <44,5,5>, <45,5,1>, <46,5,5>, <47,5,27>, <48,5,6>, <49,5,5>, <50,5,23>, <51,5,33>, <52,5,3>, <53,5,45>, <54,5,6>, <55,5,20>, <56,5,4>, <57,5,2>, <58,5,15>, <59,5,4>, <60,5,20>, <61,5,1>, <62,5,14>, <63,5,1>, <64,5,1>, <65,5,22>, <66,5,9>, <67,5,2>, <69,5,8>, <70,5,1>, <71,5,20>, <72,5,26>, <73,5,4>, <74,5,4>, <75,5,9>, <76,5,9>, <77,5,3>, <78,5,3>, <79,5,18>, <80,5,2>, <81,5,1>, <82,5,2>, <83,5,19>, <84,5,6>, <85,5,8>, <86,5,14>, <87,5,12>, <88,5,19>, <89,5,3>, <90,5,2>, <91,5,3>, <93,5,14>, <94,5,11>, <95,5,15>, <96,5,3>, <97,5,10>, <98,5,12>, <99,5,5>, <100,5,3>, <1,6,777>, <2,6,752>, <3,6,30>, <4,6,325>, <5,6,271>, <6,6,73>, <7,6,13>, <8,6,2>, <9,6,185>, <10,6,28>, <11,6,73>, <12,6,4>, <13,6,1>, <14,6,17>, <15,6,70>, <16,6,68>, <17,6,13>, <18,6,35>, <19,6,4>, <20,6,18>, <21,6,4>, <22,6,6>, <23,6,38>, <24,6,35>, <25,6,59>, <26,6,24>, <27,6,6>, <28,6,4>, <29,6,16>, <31,6,65>, <32,6,6>, <33,6,23>, <34,6,13>, <35,6,15>, <36,6,13>, <37,6,7>, <38,6,18>, <39,6,9>, <40,6,35>, <41,6,18>, <42,6,39>, <43,6,13>, <44,6,1>, <45,6,2>, <46,6,1>, <47,6,2>, <48,6,15>, <49,6,41>, <50,6,3>, <51,6,16>, <52,6,15>, <53,6,1>, <54,6,5>, <55,6,20>, <56,6,42>, <57,6,10>, <58,6,6>, <59,6,40>, <60,6,7>, <61,6,6>, <62,6,6>, <64,6,16>, <65,6,8>, <66,6,2>, <67,6,7>, <68,6,10>, <69,6,2>, <70,6,21>, <71,6,5>, <72,6,3>, <74,6,7>, <75,6,9>, <76,6,12>, <77,6,11>, <78,6,1>, <79,6,17>, <80,6,16>, <81,6,5>, <82,6,19>, <83,6,5>, <84,6,23>, <85,6,2>, <86,6,6>, <87,6,3>, <89,6,10>, <90,6,15>, <91,6,21>, <92,6,2>, <93,6,1>, <94,6,2>, <95,6,5>, <96,6,13>, <97,6,3>, <98,6,6>, <99,6,12>, <100,6,1>, <1,7,860>, <2,7,213>, <3,7,179>, <4,7,202>, <5,7,140>, <6,7,22>, <7,7,87>, <8,7,160>, <9,7,16>, <10,7,143>, <11,7,81>, <12,7,13>, <13,7,90>, <14,7,16>, <15,7,7>, <16,7,89>, <17,7,11>, <18,7,7>, <19,7,21>, <20,7,36>, <21,7,4>, <22,7,50>, <23,7,8>, <24,7,32>, <25,7,6>, <26,7,35>, <27,7,19>, <28,7,11>, <29,7,2>, <30,7,29>, <31,7,1>, <32,7,7>, <33,7,10>, <34,7,4>, <35,7,17>, <36,7,2>, <37,7,6>, <38,7,13>, <39,7,7>, <40,7,19>, <41,7,41>, <42,7,8>, <43,7,21>, <44,7,4>, <45,7,3>, <46,7,27>, <47,7,8>, <48,7,27>, <49,7,6>, <50,7,10>, <51,7,1>, <52,7,7>, <53,7,2>, <54,7,25>, <55,7,9>, <56,7,4>, <57,7,22>, <58,7,3>, <59,7,1>, <60,7,6>, <61,7,14>, <62,7,1>, <63,7,15>, <65,7,10>, <66,7,5>, <67,7,15>, <68,7,9>, <69,7,2>, <70,7,17>, <71,7,1>, <72,7,9>, <73,7,36>, <74,7,5>, <75,7,6>, <76,7,7>, <77,7,8>, <78,7,4>, <79,7,1>, <80,7,10>, <81,7,18>, <82,7,5>, <83,7,5>, <84,7,6>, <85,7,5>, <86,7,1>, <87,7,8>, <88,7,16>, <89,7,1>, <90,7,7>, <91,7,15>, <92,7,2>, <93,7,3>, <94,7,2>, <95,7,2>, <96,7,6>, <97,7,12>, <98,7,9>, <99,7,1>, <100,7,6>, <1,1,550>, <2,1,310>, <3,1,235>, <4,1,97>, <5,1,67>, <6,1,115>, <7,1,27>, <8,1,38>, <9,1,93>, <10,1,32>, <11,1,76>, <12,1,121>, <13,1,27>, <14,1,152>, <15,1,5>, <16,1,25>, <17,1,79>, <18,1,45>, <19,1,24>, <20,1,41>, <21,1,6>, <22,1,5>, <23,1,31>, <24,1,23>, <25,1,8>, <26,1,26>, <27,1,14>, <28,1,3>, <29,1,16>, <30,1,29>, <31,1,9>, <32,1,34>, <33,1,31>, <34,1,23>, <35,1,6>, <36,1,30>, <37,1,2>, <38,1,38>, <39,1,13>, <40,1,14>, <41,1,1>, <42,1,15>, <43,1,14>, <44,1,20>, <45,1,39>, <46,1,43>, <47,1,1>, <48,1,4>, <49,1,4>, <50,1,12>, <51,1,4>, <53,1,5>, <54,1,6>, <55,1,6>, <56,1,10>, <57,1,18>, <58,1,14>, <59,1,1>, <60,1,2>, <62,1,30>, <63,1,8>, <64,1,14>, <65,1,5>, <66,1,14>, <67,1,21>, <68,1,12>, <69,1,30>, <70,1,7>, <71,1,5>, <72,1,6>, <73,1,3>, <74,1,17>, <75,1,3>, <76,1,8>, <77,1,2>, <78,1,12>, <79,1,11>, <80,1,9>, <81,1,8>, <82,1,1>, <83,1,5>, <84,1,1>, <85,1,10>, <86,1,10>, <87,1,4>, <88,1,9>, <89,1,16>, <90,1,5>, <91,1,2>, <92,1,3>, <93,1,1>, <94,1,14>, <95,1,3>, <96,1,13>, <97,1,2>, <98,1,5>, <99,1,6>, <100,1,12>, <1,10,470>, <2,10,121>, <3,10,266>, <4,10,99>, <5,10,30>, <6,10,98>, <7,10,175>, <8,10,29>, <9,10,35>, <10,10,76>, <11,10,16>, <12,10,21>, <13,10,7>, <14,10,21>, <15,10,80>, <16,10,21>, <17,10,33>, <18,10,73>, <19,10,87>, <20,10,44>, <21,10,96>, <22,10,4>, <23,10,45>, <24,10,33>, <25,10,44>, <26,10,12>, <27,10,48>, <28,10,58>, <29,10,44>, <30,10,46>, <31,10,33>, <32,10,32>, <33,10,22>, <34,10,12>, <35,10,25>, <36,10,33>, <37,10,26>, <38,10,6>, <39,10,36>, <40,10,4>, <42,10,17>, <43,10,5>, <44,10,42>, <45,10,12>, <46,10,1>, <47,10,9>, <48,10,12>, <49,10,10>, <50,10,9>, <51,10,4>, <52,10,33>, <53,10,22>, <54,10,21>, <55,10,1>, <56,10,3>, <57,10,6>, <58,10,22>, <59,10,1>, <60,10,25>, <61,10,38>, <62,10,3>, <63,10,35>, <64,10,20>, <65,10,6>, <66,10,12>, <67,10,18>, <68,10,13>, <69,10,7>, <70,10,10>, <71,10,2>, <72,10,1>, <74,10,4>, <75,10,6>, <77,10,23>, <78,10,26>, <79,10,5>, <80,10,6>, <81,10,6>, <82,10,3>, <83,10,1>, <84,10,5>, <85,10,5>, <86,10,11>, <87,10,2>, <88,10,5>, <89,10,1>, <90,10,21>, <91,10,1>, <92,10,37>, <93,10,24>, <94,10,4>, <95,10,3>, <96,10,9>, <97,10,12>, <98,10,5>, <99,10,6>, <100,10,1> };

MaxCacheStorageAtSingleAS= [ 131.25  131.25  131.25  131.25  131.25  131.25  131.25  131.25  131.25  131.25  131.25 ] ;

MaxCacheStorage = 1443.75 ;
SolutionGap = 0.01 ;
